Problem:    Trasporto
Rows:       13
Columns:    32
Non-zeros:  96
Status:     OPTIMAL
Objective:  z = 5440 (MINimum)

   No.   Row name   St   Activity     Lower bound   Upper bound    Marginal
------ ------------ -- ------------- ------------- ------------- -------------
     1 Offerta[1]   NU            70                          70            -1 
     2 Offerta[2]   NU            70                          70            -4 
     3 Offerta[3]   NU            50                          50         < eps
     4 Offerta[4]   B             80                          80 
     5 Domanda[1]   NL            30            30                          21 
     6 Domanda[2]   NL            40            40                          16 
     7 Domanda[3]   NL            20            20                          19 
     8 Domanda[4]   NL            35            35                          20 
     9 Domanda[5]   NL            40            40                          19 
    10 Domanda[6]   NL            30            30                          21 
    11 Domanda[7]   NL            25            25                          26 
    12 Domanda[8]   NL            50            50                          28 
    13 z            B           5440                             

   No. Column name  St   Activity     Lower bound   Upper bound    Marginal
------ ------------ -- ------------- ------------- ------------- -------------
     1 x[1,1]       B             30             0               
     2 x[1,2]       B              5             0               
     3 x[1,3]       B             20             0               
     4 x[1,4]       NL             0             0                          13 
     5 x[1,5]       NL             0             0                          13 
     6 x[1,6]       NL             0             0                          13 
     7 x[1,7]       B             15             0               
     8 x[1,8]       NL             0             0                           3 
     9 x[2,1]       NL             0             0                           8 
    10 x[2,2]       B             35             0               
    11 x[2,3]       NL             0             0                          26 
    12 x[2,4]       NL             0             0                           7 
    13 x[2,5]       NL             0             0                          25 
    14 x[2,6]       NL             0             0                           5 
    15 x[2,7]       NL             0             0                           7 
    16 x[2,8]       B             35             0               
    17 x[3,1]       NL             0             0                           9 
    18 x[3,2]       NL             0             0                          16 
    19 x[3,3]       NL             0             0                          17 
    20 x[3,4]       NL             0             0                          15 
    21 x[3,5]       B             40             0               
    22 x[3,6]       NL             0             0                          13 
    23 x[3,7]       B             10             0               
    24 x[3,8]       NL             0             0                          11 
    25 x[4,1]       NL             0             0                           7 
    26 x[4,2]       NL             0             0                          10 
    27 x[4,3]       NL             0             0                          18 
    28 x[4,4]       B             35             0               
    29 x[4,5]       NL             0             0                          19 
    30 x[4,6]       B             30             0               
    31 x[4,7]       NL             0             0                           1 
    32 x[4,8]       B             15             0               

Karush-Kuhn-Tucker optimality conditions:

KKT.PE: max.abs.err = 0.00e+000 on row 0
        max.rel.err = 0.00e+000 on row 0
        High quality

KKT.PB: max.abs.err = 0.00e+000 on row 0
        max.rel.err = 0.00e+000 on row 0
        High quality

KKT.DE: max.abs.err = 3.55e-015 on column 2
        max.rel.err = 1.08e-016 on column 2
        High quality

KKT.DB: max.abs.err = 0.00e+000 on row 0
        max.rel.err = 0.00e+000 on row 0
        High quality

End of output
